(set-info :category "industrial")
(set-info :status sat)
(declare-fun x02 () (_ BitVec 8))
(declare-fun x03 () (_ BitVec 8))
(declare-fun x05 () (_ BitVec 8))
(declare-fun x06 () (_ BitVec 8))
(declare-fun x07 () (_ BitVec 8))
(declare-fun x08 () (_ BitVec 8))
(declare-fun x11 () (_ BitVec 8))
(declare-fun x15 () (_ BitVec 8))
(declare-fun x16 () (_ BitVec 8))
(declare-fun x17 () (_ BitVec 8))
(declare-fun x21 () (_ BitVec 8))
(declare-fun x23 () (_ BitVec 8))
(declare-fun x24 () (_ BitVec 8))
(declare-fun x27 () (_ BitVec 8))
(declare-fun x28 () (_ BitVec 8))
(declare-fun x30 () (_ BitVec 8))
(declare-fun x31 () (_ BitVec 8))
(declare-fun x35 () (_ BitVec 8))
(declare-fun x36 () (_ BitVec 8))
(declare-fun x37 () (_ BitVec 8))
(declare-fun x40 () (_ BitVec 8))
(declare-fun x41 () (_ BitVec 8))
(declare-fun x43 () (_ BitVec 8))
(declare-fun x45 () (_ BitVec 8))
(declare-fun x46 () (_ BitVec 8))
(declare-fun x48 () (_ BitVec 8))
(declare-fun x50 () (_ BitVec 8))
(declare-fun x54 () (_ BitVec 8))
(declare-fun x55 () (_ BitVec 8))
(declare-fun x56 () (_ BitVec 8))
(declare-fun x60 () (_ BitVec 8))
(declare-fun x61 () (_ BitVec 8))
(declare-fun x62 () (_ BitVec 8))
(declare-fun x63 () (_ BitVec 8))
(declare-fun x64 () (_ BitVec 8))
(declare-fun x70 () (_ BitVec 8))
(declare-fun x72 () (_ BitVec 8))
(declare-fun x73 () (_ BitVec 8))
(declare-fun x75 () (_ BitVec 8))
(declare-fun x78 () (_ BitVec 8))
(declare-fun x80 () (_ BitVec 8))
(declare-fun x81 () (_ BitVec 8))
(declare-fun x82 () (_ BitVec 8))
(declare-fun x83 () (_ BitVec 8))
(declare-fun x84 () (_ BitVec 8))
(declare-fun x85 () (_ BitVec 8))
(declare-fun x86 () (_ BitVec 8))
(declare-fun x87 () (_ BitVec 8))
(assert (bvult x02 (_ bv9 8)))
(assert (bvult x03 (_ bv9 8)))
(assert (bvult x05 (_ bv9 8)))
(assert (bvult x06 (_ bv9 8)))
(assert (bvult x07 (_ bv9 8)))
(assert (bvult x08 (_ bv9 8)))
(assert (bvult x11 (_ bv9 8)))
(assert (bvult x15 (_ bv9 8)))
(assert (bvult x16 (_ bv9 8)))
(assert (bvult x17 (_ bv9 8)))
(assert (bvult x21 (_ bv9 8)))
(assert (bvult x23 (_ bv9 8)))
(assert (bvult x24 (_ bv9 8)))
(assert (bvult x27 (_ bv9 8)))
(assert (bvult x28 (_ bv9 8)))
(assert (bvult x30 (_ bv9 8)))
(assert (bvult x31 (_ bv9 8)))
(assert (bvult x35 (_ bv9 8)))
(assert (bvult x36 (_ bv9 8)))
(assert (bvult x37 (_ bv9 8)))
(assert (bvult x40 (_ bv9 8)))
(assert (bvult x41 (_ bv9 8)))
(assert (bvult x43 (_ bv9 8)))
(assert (bvult x45 (_ bv9 8)))
(assert (bvult x46 (_ bv9 8)))
(assert (bvult x48 (_ bv9 8)))
(assert (bvult x50 (_ bv9 8)))
(assert (bvult x54 (_ bv9 8)))
(assert (bvult x55 (_ bv9 8)))
(assert (bvult x56 (_ bv9 8)))
(assert (bvult x60 (_ bv9 8)))
(assert (bvult x61 (_ bv9 8)))
(assert (bvult x62 (_ bv9 8)))
(assert (bvult x63 (_ bv9 8)))
(assert (bvult x64 (_ bv9 8)))
(assert (bvult x70 (_ bv9 8)))
(assert (bvult x72 (_ bv9 8)))
(assert (bvult x73 (_ bv9 8)))
(assert (bvult x75 (_ bv9 8)))
(assert (bvult x78 (_ bv9 8)))
(assert (bvult x80 (_ bv9 8)))
(assert (bvult x81 (_ bv9 8)))
(assert (bvult x82 (_ bv9 8)))
(assert (bvult x83 (_ bv9 8)))
(assert (bvult x84 (_ bv9 8)))
(assert (bvult x85 (_ bv9 8)))
(assert (bvult x86 (_ bv9 8)))
(assert (bvult x87 (_ bv9 8)))
(assert (not (= (_ bv5 8) (_ bv9 8))))
(assert (not (= (_ bv5 8) x02)))
(assert (not (= (_ bv5 8) x03)))
(assert (not (= (_ bv5 8) (_ bv2 8))))
(assert (not (= (_ bv5 8) x05)))
(assert (not (= (_ bv5 8) x06)))
(assert (not (= (_ bv5 8) x07)))
(assert (not (= (_ bv5 8) x08)))
(assert (not (= (_ bv9 8) x02)))
(assert (not (= (_ bv9 8) x03)))
(assert (not (= (_ bv9 8) (_ bv2 8))))
(assert (not (= (_ bv9 8) x05)))
(assert (not (= (_ bv9 8) x06)))
(assert (not (= (_ bv9 8) x07)))
(assert (not (= (_ bv9 8) x08)))
(assert (not (= x02 x03)))
(assert (not (= x02 (_ bv2 8))))
(assert (not (= x02 x05)))
(assert (not (= x02 x06)))
(assert (not (= x02 x07)))
(assert (not (= x02 x08)))
(assert (not (= x03 (_ bv2 8))))
(assert (not (= x03 x05)))
(assert (not (= x03 x06)))
(assert (not (= x03 x07)))
(assert (not (= x03 x08)))
(assert (not (= (_ bv2 8) x05)))
(assert (not (= (_ bv2 8) x06)))
(assert (not (= (_ bv2 8) x07)))
(assert (not (= (_ bv2 8) x08)))
(assert (not (= x05 x06)))
(assert (not (= x05 x07)))
(assert (not (= x05 x08)))
(assert (not (= x06 x07)))
(assert (not (= x06 x08)))
(assert (not (= x07 x08)))
(assert (not (= (_ bv4 8) x11)))
(assert (not (= (_ bv4 8) (_ bv7 8))))
(assert (not (= (_ bv4 8) (_ bv6 8))))
(assert (not (= (_ bv4 8) (_ bv9 8))))
(assert (not (= (_ bv4 8) x15)))
(assert (not (= (_ bv4 8) x16)))
(assert (not (= (_ bv4 8) x17)))
(assert (not (= (_ bv4 8) (_ bv1 8))))
(assert (not (= x11 (_ bv7 8))))
(assert (not (= x11 (_ bv6 8))))
(assert (not (= x11 (_ bv9 8))))
(assert (not (= x11 x15)))
(assert (not (= x11 x16)))
(assert (not (= x11 x17)))
(assert (not (= x11 (_ bv1 8))))
(assert (not (= (_ bv7 8) (_ bv6 8))))
(assert (not (= (_ bv7 8) (_ bv9 8))))
(assert (not (= (_ bv7 8) x15)))
(assert (not (= (_ bv7 8) x16)))
(assert (not (= (_ bv7 8) x17)))
(assert (not (= (_ bv7 8) (_ bv1 8))))
(assert (not (= (_ bv6 8) (_ bv9 8))))
(assert (not (= (_ bv6 8) x15)))
(assert (not (= (_ bv6 8) x16)))
(assert (not (= (_ bv6 8) x17)))
(assert (not (= (_ bv6 8) (_ bv1 8))))
(assert (not (= (_ bv9 8) x15)))
(assert (not (= (_ bv9 8) x16)))
(assert (not (= (_ bv9 8) x17)))
(assert (not (= (_ bv9 8) (_ bv1 8))))
(assert (not (= x15 x16)))
(assert (not (= x15 x17)))
(assert (not (= x15 (_ bv1 8))))
(assert (not (= x16 x17)))
(assert (not (= x16 (_ bv1 8))))
(assert (not (= x17 (_ bv1 8))))
(assert (not (= (_ bv2 8) x21)))
(assert (not (= (_ bv2 8) (_ bv3 8))))
(assert (not (= (_ bv2 8) x23)))
(assert (not (= (_ bv2 8) x24)))
(assert (not (= (_ bv2 8) (_ bv7 8))))
(assert (not (= (_ bv2 8) (_ bv8 8))))
(assert (not (= (_ bv2 8) x27)))
(assert (not (= (_ bv2 8) x28)))
(assert (not (= x21 (_ bv3 8))))
(assert (not (= x21 x23)))
(assert (not (= x21 x24)))
(assert (not (= x21 (_ bv7 8))))
(assert (not (= x21 (_ bv8 8))))
(assert (not (= x21 x27)))
(assert (not (= x21 x28)))
(assert (not (= (_ bv3 8) x23)))
(assert (not (= (_ bv3 8) x24)))
(assert (not (= (_ bv3 8) (_ bv7 8))))
(assert (not (= (_ bv3 8) (_ bv8 8))))
(assert (not (= (_ bv3 8) x27)))
(assert (not (= (_ bv3 8) x28)))
(assert (not (= x23 x24)))
(assert (not (= x23 (_ bv7 8))))
(assert (not (= x23 (_ bv8 8))))
(assert (not (= x23 x27)))
(assert (not (= x23 x28)))
(assert (not (= x24 (_ bv7 8))))
(assert (not (= x24 (_ bv8 8))))
(assert (not (= x24 x27)))
(assert (not (= x24 x28)))
(assert (not (= (_ bv7 8) (_ bv8 8))))
(assert (not (= (_ bv7 8) x27)))
(assert (not (= (_ bv7 8) x28)))
(assert (not (= (_ bv8 8) x27)))
(assert (not (= (_ bv8 8) x28)))
(assert (not (= x27 x28)))
(assert (not (= x30 x31)))
(assert (not (= x30 (_ bv1 8))))
(assert (not (= x30 (_ bv3 8))))
(assert (not (= x30 (_ bv5 8))))
(assert (not (= x30 x35)))
(assert (not (= x30 x36)))
(assert (not (= x30 x37)))
(assert (not (= x30 (_ bv6 8))))
(assert (not (= x31 (_ bv1 8))))
(assert (not (= x31 (_ bv3 8))))
(assert (not (= x31 (_ bv5 8))))
(assert (not (= x31 x35)))
(assert (not (= x31 x36)))
(assert (not (= x31 x37)))
(assert (not (= x31 (_ bv6 8))))
(assert (not (= (_ bv1 8) (_ bv3 8))))
(assert (not (= (_ bv1 8) (_ bv5 8))))
(assert (not (= (_ bv1 8) x35)))
(assert (not (= (_ bv1 8) x36)))
(assert (not (= (_ bv1 8) x37)))
(assert (not (= (_ bv1 8) (_ bv6 8))))
(assert (not (= (_ bv3 8) (_ bv5 8))))
(assert (not (= (_ bv3 8) x35)))
(assert (not (= (_ bv3 8) x36)))
(assert (not (= (_ bv3 8) x37)))
(assert (not (= (_ bv3 8) (_ bv6 8))))
(assert (not (= (_ bv5 8) x35)))
(assert (not (= (_ bv5 8) x36)))
(assert (not (= (_ bv5 8) x37)))
(assert (not (= (_ bv5 8) (_ bv6 8))))
(assert (not (= x35 x36)))
(assert (not (= x35 x37)))
(assert (not (= x35 (_ bv6 8))))
(assert (not (= x36 x37)))
(assert (not (= x36 (_ bv6 8))))
(assert (not (= x37 (_ bv6 8))))
(assert (not (= x40 x41)))
(assert (not (= x40 (_ bv2 8))))
(assert (not (= x40 x43)))
(assert (not (= x40 (_ bv7 8))))
(assert (not (= x40 x45)))
(assert (not (= x40 x46)))
(assert (not (= x40 (_ bv9 8))))
(assert (not (= x40 x48)))
(assert (not (= x41 (_ bv2 8))))
(assert (not (= x41 x43)))
(assert (not (= x41 (_ bv7 8))))
(assert (not (= x41 x45)))
(assert (not (= x41 x46)))
(assert (not (= x41 (_ bv9 8))))
(assert (not (= x41 x48)))
(assert (not (= (_ bv2 8) x43)))
(assert (not (= (_ bv2 8) (_ bv7 8))))
(assert (not (= (_ bv2 8) x45)))
(assert (not (= (_ bv2 8) x46)))
(assert (not (= (_ bv2 8) (_ bv9 8))))
(assert (not (= (_ bv2 8) x48)))
(assert (not (= x43 (_ bv7 8))))
(assert (not (= x43 x45)))
(assert (not (= x43 x46)))
(assert (not (= x43 (_ bv9 8))))
(assert (not (= x43 x48)))
(assert (not (= (_ bv7 8) x45)))
(assert (not (= (_ bv7 8) x46)))
(assert (not (= (_ bv7 8) (_ bv9 8))))
(assert (not (= (_ bv7 8) x48)))
(assert (not (= x45 x46)))
(assert (not (= x45 (_ bv9 8))))
(assert (not (= x45 x48)))
(assert (not (= x46 (_ bv9 8))))
(assert (not (= x46 x48)))
(assert (not (= (_ bv9 8) x48)))
(assert (not (= x50 (_ bv3 8))))
(assert (not (= x50 (_ bv5 8))))
(assert (not (= x50 (_ bv9 8))))
(assert (not (= x50 x54)))
(assert (not (= x50 x55)))
(assert (not (= x50 x56)))
(assert (not (= x50 (_ bv2 8))))
(assert (not (= x50 (_ bv7 8))))
(assert (not (= (_ bv3 8) (_ bv5 8))))
(assert (not (= (_ bv3 8) (_ bv9 8))))
(assert (not (= (_ bv3 8) x54)))
(assert (not (= (_ bv3 8) x55)))
(assert (not (= (_ bv3 8) x56)))
(assert (not (= (_ bv3 8) (_ bv2 8))))
(assert (not (= (_ bv3 8) (_ bv7 8))))
(assert (not (= (_ bv5 8) (_ bv9 8))))
(assert (not (= (_ bv5 8) x54)))
(assert (not (= (_ bv5 8) x55)))
(assert (not (= (_ bv5 8) x56)))
(assert (not (= (_ bv5 8) (_ bv2 8))))
(assert (not (= (_ bv5 8) (_ bv7 8))))
(assert (not (= (_ bv9 8) x54)))
(assert (not (= (_ bv9 8) x55)))
(assert (not (= (_ bv9 8) x56)))
(assert (not (= (_ bv9 8) (_ bv2 8))))
(assert (not (= (_ bv9 8) (_ bv7 8))))
(assert (not (= x54 x55)))
(assert (not (= x54 x56)))
(assert (not (= x54 (_ bv2 8))))
(assert (not (= x54 (_ bv7 8))))
(assert (not (= x55 x56)))
(assert (not (= x55 (_ bv2 8))))
(assert (not (= x55 (_ bv7 8))))
(assert (not (= x56 (_ bv2 8))))
(assert (not (= x56 (_ bv7 8))))
(assert (not (= (_ bv2 8) (_ bv7 8))))
(assert (not (= x60 x61)))
(assert (not (= x60 x62)))
(assert (not (= x60 x63)))
(assert (not (= x60 x64)))
(assert (not (= x60 (_ bv8 8))))
(assert (not (= x60 (_ bv3 8))))
(assert (not (= x60 (_ bv4 8))))
(assert (not (= x60 (_ bv5 8))))
(assert (not (= x61 x62)))
(assert (not (= x61 x63)))
(assert (not (= x61 x64)))
(assert (not (= x61 (_ bv8 8))))
(assert (not (= x61 (_ bv3 8))))
(assert (not (= x61 (_ bv4 8))))
(assert (not (= x61 (_ bv5 8))))
(assert (not (= x62 x63)))
(assert (not (= x62 x64)))
(assert (not (= x62 (_ bv8 8))))
(assert (not (= x62 (_ bv3 8))))
(assert (not (= x62 (_ bv4 8))))
(assert (not (= x62 (_ bv5 8))))
(assert (not (= x63 x64)))
(assert (not (= x63 (_ bv8 8))))
(assert (not (= x63 (_ bv3 8))))
(assert (not (= x63 (_ bv4 8))))
(assert (not (= x63 (_ bv5 8))))
(assert (not (= x64 (_ bv8 8))))
(assert (not (= x64 (_ bv3 8))))
(assert (not (= x64 (_ bv4 8))))
(assert (not (= x64 (_ bv5 8))))
(assert (not (= (_ bv8 8) (_ bv3 8))))
(assert (not (= (_ bv8 8) (_ bv4 8))))
(assert (not (= (_ bv8 8) (_ bv5 8))))
(assert (not (= (_ bv3 8) (_ bv4 8))))
(assert (not (= (_ bv3 8) (_ bv5 8))))
(assert (not (= (_ bv4 8) (_ bv5 8))))
(assert (not (= x70 (_ bv6 8))))
(assert (not (= x70 x72)))
(assert (not (= x70 x73)))
(assert (not (= x70 (_ bv1 8))))
(assert (not (= x70 x75)))
(assert (not (= x70 (_ bv9 8))))
(assert (not (= x70 (_ bv7 8))))
(assert (not (= x70 x78)))
(assert (not (= (_ bv6 8) x72)))
(assert (not (= (_ bv6 8) x73)))
(assert (not (= (_ bv6 8) (_ bv1 8))))
(assert (not (= (_ bv6 8) x75)))
(assert (not (= (_ bv6 8) (_ bv9 8))))
(assert (not (= (_ bv6 8) (_ bv7 8))))
(assert (not (= (_ bv6 8) x78)))
(assert (not (= x72 x73)))
(assert (not (= x72 (_ bv1 8))))
(assert (not (= x72 x75)))
(assert (not (= x72 (_ bv9 8))))
(assert (not (= x72 (_ bv7 8))))
(assert (not (= x72 x78)))
(assert (not (= x73 (_ bv1 8))))
(assert (not (= x73 x75)))
(assert (not (= x73 (_ bv9 8))))
(assert (not (= x73 (_ bv7 8))))
(assert (not (= x73 x78)))
(assert (not (= (_ bv1 8) x75)))
(assert (not (= (_ bv1 8) (_ bv9 8))))
(assert (not (= (_ bv1 8) (_ bv7 8))))
(assert (not (= (_ bv1 8) x78)))
(assert (not (= x75 (_ bv9 8))))
(assert (not (= x75 (_ bv7 8))))
(assert (not (= x75 x78)))
(assert (not (= (_ bv9 8) (_ bv7 8))))
(assert (not (= (_ bv9 8) x78)))
(assert (not (= (_ bv7 8) x78)))
(assert (not (= x80 x81)))
(assert (not (= x80 x82)))
(assert (not (= x80 x83)))
(assert (not (= x80 x84)))
(assert (not (= x80 x85)))
(assert (not (= x80 x86)))
(assert (not (= x80 x87)))
(assert (not (= x80 (_ bv8 8))))
(assert (not (= x81 x82)))
(assert (not (= x81 x83)))
(assert (not (= x81 x84)))
(assert (not (= x81 x85)))
(assert (not (= x81 x86)))
(assert (not (= x81 x87)))
(assert (not (= x81 (_ bv8 8))))
(assert (not (= x82 x83)))
(assert (not (= x82 x84)))
(assert (not (= x82 x85)))
(assert (not (= x82 x86)))
(assert (not (= x82 x87)))
(assert (not (= x82 (_ bv8 8))))
(assert (not (= x83 x84)))
(assert (not (= x83 x85)))
(assert (not (= x83 x86)))
(assert (not (= x83 x87)))
(assert (not (= x83 (_ bv8 8))))
(assert (not (= x84 x85)))
(assert (not (= x84 x86)))
(assert (not (= x84 x87)))
(assert (not (= x84 (_ bv8 8))))
(assert (not (= x85 x86)))
(assert (not (= x85 x87)))
(assert (not (= x85 (_ bv8 8))))
(assert (not (= x86 x87)))
(assert (not (= x86 (_ bv8 8))))
(assert (not (= x87 (_ bv8 8))))
(assert (not (= (_ bv5 8) (_ bv4 8))))
(assert (not (= (_ bv5 8) (_ bv2 8))))
(assert (not (= (_ bv5 8) x30)))
(assert (not (= (_ bv5 8) x40)))
(assert (not (= (_ bv5 8) x50)))
(assert (not (= (_ bv5 8) x60)))
(assert (not (= (_ bv5 8) x70)))
(assert (not (= (_ bv5 8) x80)))
(assert (not (= (_ bv4 8) (_ bv2 8))))
(assert (not (= (_ bv4 8) x30)))
(assert (not (= (_ bv4 8) x40)))
(assert (not (= (_ bv4 8) x50)))
(assert (not (= (_ bv4 8) x60)))
(assert (not (= (_ bv4 8) x70)))
(assert (not (= (_ bv4 8) x80)))
(assert (not (= (_ bv2 8) x30)))
(assert (not (= (_ bv2 8) x40)))
(assert (not (= (_ bv2 8) x50)))
(assert (not (= (_ bv2 8) x60)))
(assert (not (= (_ bv2 8) x70)))
(assert (not (= (_ bv2 8) x80)))
(assert (not (= x30 x40)))
(assert (not (= x30 x50)))
(assert (not (= x30 x60)))
(assert (not (= x30 x70)))
(assert (not (= x30 x80)))
(assert (not (= x40 x50)))
(assert (not (= x40 x60)))
(assert (not (= x40 x70)))
(assert (not (= x40 x80)))
(assert (not (= x50 x60)))
(assert (not (= x50 x70)))
(assert (not (= x50 x80)))
(assert (not (= x60 x70)))
(assert (not (= x60 x80)))
(assert (not (= x70 x80)))
(assert (not (= (_ bv9 8) x11)))
(assert (not (= (_ bv9 8) x21)))
(assert (not (= (_ bv9 8) x31)))
(assert (not (= (_ bv9 8) x41)))
(assert (not (= (_ bv9 8) (_ bv3 8))))
(assert (not (= (_ bv9 8) x61)))
(assert (not (= (_ bv9 8) (_ bv6 8))))
(assert (not (= (_ bv9 8) x81)))
(assert (not (= x11 x21)))
(assert (not (= x11 x31)))
(assert (not (= x11 x41)))
(assert (not (= x11 (_ bv3 8))))
(assert (not (= x11 x61)))
(assert (not (= x11 (_ bv6 8))))
(assert (not (= x11 x81)))
(assert (not (= x21 x31)))
(assert (not (= x21 x41)))
(assert (not (= x21 (_ bv3 8))))
(assert (not (= x21 x61)))
(assert (not (= x21 (_ bv6 8))))
(assert (not (= x21 x81)))
(assert (not (= x31 x41)))
(assert (not (= x31 (_ bv3 8))))
(assert (not (= x31 x61)))
(assert (not (= x31 (_ bv6 8))))
(assert (not (= x31 x81)))
(assert (not (= x41 (_ bv3 8))))
(assert (not (= x41 x61)))
(assert (not (= x41 (_ bv6 8))))
(assert (not (= x41 x81)))
(assert (not (= (_ bv3 8) x61)))
(assert (not (= (_ bv3 8) (_ bv6 8))))
(assert (not (= (_ bv3 8) x81)))
(assert (not (= x61 (_ bv6 8))))
(assert (not (= x61 x81)))
(assert (not (= (_ bv6 8) x81)))
(assert (not (= x02 (_ bv7 8))))
(assert (not (= x02 (_ bv3 8))))
(assert (not (= x02 (_ bv1 8))))
(assert (not (= x02 (_ bv2 8))))
(assert (not (= x02 (_ bv5 8))))
(assert (not (= x02 x62)))
(assert (not (= x02 x72)))
(assert (not (= x02 x82)))
(assert (not (= (_ bv7 8) (_ bv3 8))))
(assert (not (= (_ bv7 8) (_ bv1 8))))
(assert (not (= (_ bv7 8) (_ bv2 8))))
(assert (not (= (_ bv7 8) (_ bv5 8))))
(assert (not (= (_ bv7 8) x62)))
(assert (not (= (_ bv7 8) x72)))
(assert (not (= (_ bv7 8) x82)))
(assert (not (= (_ bv3 8) (_ bv1 8))))
(assert (not (= (_ bv3 8) (_ bv2 8))))
(assert (not (= (_ bv3 8) (_ bv5 8))))
(assert (not (= (_ bv3 8) x62)))
(assert (not (= (_ bv3 8) x72)))
(assert (not (= (_ bv3 8) x82)))
(assert (not (= (_ bv1 8) (_ bv2 8))))
(assert (not (= (_ bv1 8) (_ bv5 8))))
(assert (not (= (_ bv1 8) x62)))
(assert (not (= (_ bv1 8) x72)))
(assert (not (= (_ bv1 8) x82)))
(assert (not (= (_ bv2 8) (_ bv5 8))))
(assert (not (= (_ bv2 8) x62)))
(assert (not (= (_ bv2 8) x72)))
(assert (not (= (_ bv2 8) x82)))
(assert (not (= (_ bv5 8) x62)))
(assert (not (= (_ bv5 8) x72)))
(assert (not (= (_ bv5 8) x82)))
(assert (not (= x62 x72)))
(assert (not (= x62 x82)))
(assert (not (= x72 x82)))
(assert (not (= x03 (_ bv6 8))))
(assert (not (= x03 x23)))
(assert (not (= x03 (_ bv3 8))))
(assert (not (= x03 x43)))
(assert (not (= x03 (_ bv9 8))))
(assert (not (= x03 x63)))
(assert (not (= x03 x73)))
(assert (not (= x03 x83)))
(assert (not (= (_ bv6 8) x23)))
(assert (not (= (_ bv6 8) (_ bv3 8))))
(assert (not (= (_ bv6 8) x43)))
(assert (not (= (_ bv6 8) (_ bv9 8))))
(assert (not (= (_ bv6 8) x63)))
(assert (not (= (_ bv6 8) x73)))
(assert (not (= (_ bv6 8) x83)))
(assert (not (= x23 (_ bv3 8))))
(assert (not (= x23 x43)))
(assert (not (= x23 (_ bv9 8))))
(assert (not (= x23 x63)))
(assert (not (= x23 x73)))
(assert (not (= x23 x83)))
(assert (not (= (_ bv3 8) x43)))
(assert (not (= (_ bv3 8) (_ bv9 8))))
(assert (not (= (_ bv3 8) x63)))
(assert (not (= (_ bv3 8) x73)))
(assert (not (= (_ bv3 8) x83)))
(assert (not (= x43 (_ bv9 8))))
(assert (not (= x43 x63)))
(assert (not (= x43 x73)))
(assert (not (= x43 x83)))
(assert (not (= (_ bv9 8) x63)))
(assert (not (= (_ bv9 8) x73)))
(assert (not (= (_ bv9 8) x83)))
(assert (not (= x63 x73)))
(assert (not (= x63 x83)))
(assert (not (= x73 x83)))
(assert (not (= (_ bv2 8) (_ bv9 8))))
(assert (not (= (_ bv2 8) x24)))
(assert (not (= (_ bv2 8) (_ bv5 8))))
(assert (not (= (_ bv2 8) (_ bv7 8))))
(assert (not (= (_ bv2 8) x54)))
(assert (not (= (_ bv2 8) x64)))
(assert (not (= (_ bv2 8) (_ bv1 8))))
(assert (not (= (_ bv2 8) x84)))
(assert (not (= (_ bv9 8) x24)))
(assert (not (= (_ bv9 8) (_ bv5 8))))
(assert (not (= (_ bv9 8) (_ bv7 8))))
(assert (not (= (_ bv9 8) x54)))
(assert (not (= (_ bv9 8) x64)))
(assert (not (= (_ bv9 8) (_ bv1 8))))
(assert (not (= (_ bv9 8) x84)))
(assert (not (= x24 (_ bv5 8))))
(assert (not (= x24 (_ bv7 8))))
(assert (not (= x24 x54)))
(assert (not (= x24 x64)))
(assert (not (= x24 (_ bv1 8))))
(assert (not (= x24 x84)))
(assert (not (= (_ bv5 8) (_ bv7 8))))
(assert (not (= (_ bv5 8) x54)))
(assert (not (= (_ bv5 8) x64)))
(assert (not (= (_ bv5 8) (_ bv1 8))))
(assert (not (= (_ bv5 8) x84)))
(assert (not (= (_ bv7 8) x54)))
(assert (not (= (_ bv7 8) x64)))
(assert (not (= (_ bv7 8) (_ bv1 8))))
(assert (not (= (_ bv7 8) x84)))
(assert (not (= x54 x64)))
(assert (not (= x54 (_ bv1 8))))
(assert (not (= x54 x84)))
(assert (not (= x64 (_ bv1 8))))
(assert (not (= x64 x84)))
(assert (not (= (_ bv1 8) x84)))
(assert (not (= x05 x15)))
(assert (not (= x05 (_ bv7 8))))
(assert (not (= x05 x35)))
(assert (not (= x05 x45)))
(assert (not (= x05 x55)))
(assert (not (= x05 (_ bv8 8))))
(assert (not (= x05 x75)))
(assert (not (= x05 x85)))
(assert (not (= x15 (_ bv7 8))))
(assert (not (= x15 x35)))
(assert (not (= x15 x45)))
(assert (not (= x15 x55)))
(assert (not (= x15 (_ bv8 8))))
(assert (not (= x15 x75)))
(assert (not (= x15 x85)))
(assert (not (= (_ bv7 8) x35)))
(assert (not (= (_ bv7 8) x45)))
(assert (not (= (_ bv7 8) x55)))
(assert (not (= (_ bv7 8) (_ bv8 8))))
(assert (not (= (_ bv7 8) x75)))
(assert (not (= (_ bv7 8) x85)))
(assert (not (= x35 x45)))
(assert (not (= x35 x55)))
(assert (not (= x35 (_ bv8 8))))
(assert (not (= x35 x75)))
(assert (not (= x35 x85)))
(assert (not (= x45 x55)))
(assert (not (= x45 (_ bv8 8))))
(assert (not (= x45 x75)))
(assert (not (= x45 x85)))
(assert (not (= x55 (_ bv8 8))))
(assert (not (= x55 x75)))
(assert (not (= x55 x85)))
(assert (not (= (_ bv8 8) x75)))
(assert (not (= (_ bv8 8) x85)))
(assert (not (= x75 x85)))
(assert (not (= x06 x16)))
(assert (not (= x06 (_ bv8 8))))
(assert (not (= x06 x36)))
(assert (not (= x06 x46)))
(assert (not (= x06 x56)))
(assert (not (= x06 (_ bv3 8))))
(assert (not (= x06 (_ bv9 8))))
(assert (not (= x06 x86)))
(assert (not (= x16 (_ bv8 8))))
(assert (not (= x16 x36)))
(assert (not (= x16 x46)))
(assert (not (= x16 x56)))
(assert (not (= x16 (_ bv3 8))))
(assert (not (= x16 (_ bv9 8))))
(assert (not (= x16 x86)))
(assert (not (= (_ bv8 8) x36)))
(assert (not (= (_ bv8 8) x46)))
(assert (not (= (_ bv8 8) x56)))
(assert (not (= (_ bv8 8) (_ bv3 8))))
(assert (not (= (_ bv8 8) (_ bv9 8))))
(assert (not (= (_ bv8 8) x86)))
(assert (not (= x36 x46)))
(assert (not (= x36 x56)))
(assert (not (= x36 (_ bv3 8))))
(assert (not (= x36 (_ bv9 8))))
(assert (not (= x36 x86)))
(assert (not (= x46 x56)))
(assert (not (= x46 (_ bv3 8))))
(assert (not (= x46 (_ bv9 8))))
(assert (not (= x46 x86)))
(assert (not (= x56 (_ bv3 8))))
(assert (not (= x56 (_ bv9 8))))
(assert (not (= x56 x86)))
(assert (not (= (_ bv3 8) (_ bv9 8))))
(assert (not (= (_ bv3 8) x86)))
(assert (not (= (_ bv9 8) x86)))
(assert (not (= x07 x17)))
(assert (not (= x07 x27)))
(assert (not (= x07 x37)))
(assert (not (= x07 (_ bv9 8))))
(assert (not (= x07 (_ bv2 8))))
(assert (not (= x07 (_ bv4 8))))
(assert (not (= x07 (_ bv7 8))))
(assert (not (= x07 x87)))
(assert (not (= x17 x27)))
(assert (not (= x17 x37)))
(assert (not (= x17 (_ bv9 8))))
(assert (not (= x17 (_ bv2 8))))
(assert (not (= x17 (_ bv4 8))))
(assert (not (= x17 (_ bv7 8))))
(assert (not (= x17 x87)))
(assert (not (= x27 x37)))
(assert (not (= x27 (_ bv9 8))))
(assert (not (= x27 (_ bv2 8))))
(assert (not (= x27 (_ bv4 8))))
(assert (not (= x27 (_ bv7 8))))
(assert (not (= x27 x87)))
(assert (not (= x37 (_ bv9 8))))
(assert (not (= x37 (_ bv2 8))))
(assert (not (= x37 (_ bv4 8))))
(assert (not (= x37 (_ bv7 8))))
(assert (not (= x37 x87)))
(assert (not (= (_ bv9 8) (_ bv2 8))))
(assert (not (= (_ bv9 8) (_ bv4 8))))
(assert (not (= (_ bv9 8) (_ bv7 8))))
(assert (not (= (_ bv9 8) x87)))
(assert (not (= (_ bv2 8) (_ bv4 8))))
(assert (not (= (_ bv2 8) (_ bv7 8))))
(assert (not (= (_ bv2 8) x87)))
(assert (not (= (_ bv4 8) (_ bv7 8))))
(assert (not (= (_ bv4 8) x87)))
(assert (not (= (_ bv7 8) x87)))
(assert (not (= x08 (_ bv1 8))))
(assert (not (= x08 x28)))
(assert (not (= x08 (_ bv6 8))))
(assert (not (= x08 x48)))
(assert (not (= x08 (_ bv7 8))))
(assert (not (= x08 (_ bv5 8))))
(assert (not (= x08 x78)))
(assert (not (= x08 (_ bv8 8))))
(assert (not (= (_ bv1 8) x28)))
(assert (not (= (_ bv1 8) (_ bv6 8))))
(assert (not (= (_ bv1 8) x48)))
(assert (not (= (_ bv1 8) (_ bv7 8))))
(assert (not (= (_ bv1 8) (_ bv5 8))))
(assert (not (= (_ bv1 8) x78)))
(assert (not (= (_ bv1 8) (_ bv8 8))))
(assert (not (= x28 (_ bv6 8))))
(assert (not (= x28 x48)))
(assert (not (= x28 (_ bv7 8))))
(assert (not (= x28 (_ bv5 8))))
(assert (not (= x28 x78)))
(assert (not (= x28 (_ bv8 8))))
(assert (not (= (_ bv6 8) x48)))
(assert (not (= (_ bv6 8) (_ bv7 8))))
(assert (not (= (_ bv6 8) (_ bv5 8))))
(assert (not (= (_ bv6 8) x78)))
(assert (not (= (_ bv6 8) (_ bv8 8))))
(assert (not (= x48 (_ bv7 8))))
(assert (not (= x48 (_ bv5 8))))
(assert (not (= x48 x78)))
(assert (not (= x48 (_ bv8 8))))
(assert (not (= (_ bv7 8) (_ bv5 8))))
(assert (not (= (_ bv7 8) x78)))
(assert (not (= (_ bv7 8) (_ bv8 8))))
(assert (not (= (_ bv5 8) x78)))
(assert (not (= (_ bv5 8) (_ bv8 8))))
(assert (not (= x78 (_ bv8 8))))
(assert (not (= (_ bv5 8) (_ bv9 8))))
(assert (not (= (_ bv5 8) x02)))
(assert (not (= (_ bv5 8) (_ bv4 8))))
(assert (not (= (_ bv5 8) x11)))
(assert (not (= (_ bv5 8) (_ bv7 8))))
(assert (not (= (_ bv5 8) (_ bv2 8))))
(assert (not (= (_ bv5 8) x21)))
(assert (not (= (_ bv5 8) (_ bv3 8))))
(assert (not (= (_ bv9 8) x02)))
(assert (not (= (_ bv9 8) (_ bv4 8))))
(assert (not (= (_ bv9 8) x11)))
(assert (not (= (_ bv9 8) (_ bv7 8))))
(assert (not (= (_ bv9 8) (_ bv2 8))))
(assert (not (= (_ bv9 8) x21)))
(assert (not (= (_ bv9 8) (_ bv3 8))))
(assert (not (= x02 (_ bv4 8))))
(assert (not (= x02 x11)))
(assert (not (= x02 (_ bv7 8))))
(assert (not (= x02 (_ bv2 8))))
(assert (not (= x02 x21)))
(assert (not (= x02 (_ bv3 8))))
(assert (not (= (_ bv4 8) x11)))
(assert (not (= (_ bv4 8) (_ bv7 8))))
(assert (not (= (_ bv4 8) (_ bv2 8))))
(assert (not (= (_ bv4 8) x21)))
(assert (not (= (_ bv4 8) (_ bv3 8))))
(assert (not (= x11 (_ bv7 8))))
(assert (not (= x11 (_ bv2 8))))
(assert (not (= x11 x21)))
(assert (not (= x11 (_ bv3 8))))
(assert (not (= (_ bv7 8) (_ bv2 8))))
(assert (not (= (_ bv7 8) x21)))
(assert (not (= (_ bv7 8) (_ bv3 8))))
(assert (not (= (_ bv2 8) x21)))
(assert (not (= (_ bv2 8) (_ bv3 8))))
(assert (not (= x21 (_ bv3 8))))
(assert (not (= x03 (_ bv2 8))))
(assert (not (= x03 x05)))
(assert (not (= x03 (_ bv6 8))))
(assert (not (= x03 (_ bv9 8))))
(assert (not (= x03 x15)))
(assert (not (= x03 x23)))
(assert (not (= x03 x24)))
(assert (not (= x03 (_ bv7 8))))
(assert (not (= (_ bv2 8) x05)))
(assert (not (= (_ bv2 8) (_ bv6 8))))
(assert (not (= (_ bv2 8) (_ bv9 8))))
(assert (not (= (_ bv2 8) x15)))
(assert (not (= (_ bv2 8) x23)))
(assert (not (= (_ bv2 8) x24)))
(assert (not (= (_ bv2 8) (_ bv7 8))))
(assert (not (= x05 (_ bv6 8))))
(assert (not (= x05 (_ bv9 8))))
(assert (not (= x05 x15)))
(assert (not (= x05 x23)))
(assert (not (= x05 x24)))
(assert (not (= x05 (_ bv7 8))))
(assert (not (= (_ bv6 8) (_ bv9 8))))
(assert (not (= (_ bv6 8) x15)))
(assert (not (= (_ bv6 8) x23)))
(assert (not (= (_ bv6 8) x24)))
(assert (not (= (_ bv6 8) (_ bv7 8))))
(assert (not (= (_ bv9 8) x15)))
(assert (not (= (_ bv9 8) x23)))
(assert (not (= (_ bv9 8) x24)))
(assert (not (= (_ bv9 8) (_ bv7 8))))
(assert (not (= x15 x23)))
(assert (not (= x15 x24)))
(assert (not (= x15 (_ bv7 8))))
(assert (not (= x23 x24)))
(assert (not (= x23 (_ bv7 8))))
(assert (not (= x24 (_ bv7 8))))
(assert (not (= x06 x07)))
(assert (not (= x06 x08)))
(assert (not (= x06 x16)))
(assert (not (= x06 x17)))
(assert (not (= x06 (_ bv1 8))))
(assert (not (= x06 (_ bv8 8))))
(assert (not (= x06 x27)))
(assert (not (= x06 x28)))
(assert (not (= x07 x08)))
(assert (not (= x07 x16)))
(assert (not (= x07 x17)))
(assert (not (= x07 (_ bv1 8))))
(assert (not (= x07 (_ bv8 8))))
(assert (not (= x07 x27)))
(assert (not (= x07 x28)))
(assert (not (= x08 x16)))
(assert (not (= x08 x17)))
(assert (not (= x08 (_ bv1 8))))
(assert (not (= x08 (_ bv8 8))))
(assert (not (= x08 x27)))
(assert (not (= x08 x28)))
(assert (not (= x16 x17)))
(assert (not (= x16 (_ bv1 8))))
(assert (not (= x16 (_ bv8 8))))
(assert (not (= x16 x27)))
(assert (not (= x16 x28)))
(assert (not (= x17 (_ bv1 8))))
(assert (not (= x17 (_ bv8 8))))
(assert (not (= x17 x27)))
(assert (not (= x17 x28)))
(assert (not (= (_ bv1 8) (_ bv8 8))))
(assert (not (= (_ bv1 8) x27)))
(assert (not (= (_ bv1 8) x28)))
(assert (not (= (_ bv8 8) x27)))
(assert (not (= (_ bv8 8) x28)))
(assert (not (= x27 x28)))
(assert (not (= x30 x31)))
(assert (not (= x30 (_ bv1 8))))
(assert (not (= x30 x40)))
(assert (not (= x30 x41)))
(assert (not (= x30 (_ bv2 8))))
(assert (not (= x30 x50)))
(assert (not (= x30 (_ bv3 8))))
(assert (not (= x30 (_ bv5 8))))
(assert (not (= x31 (_ bv1 8))))
(assert (not (= x31 x40)))
(assert (not (= x31 x41)))
(assert (not (= x31 (_ bv2 8))))
(assert (not (= x31 x50)))
(assert (not (= x31 (_ bv3 8))))
(assert (not (= x31 (_ bv5 8))))
(assert (not (= (_ bv1 8) x40)))
(assert (not (= (_ bv1 8) x41)))
(assert (not (= (_ bv1 8) (_ bv2 8))))
(assert (not (= (_ bv1 8) x50)))
(assert (not (= (_ bv1 8) (_ bv3 8))))
(assert (not (= (_ bv1 8) (_ bv5 8))))
(assert (not (= x40 x41)))
(assert (not (= x40 (_ bv2 8))))
(assert (not (= x40 x50)))
(assert (not (= x40 (_ bv3 8))))
(assert (not (= x40 (_ bv5 8))))
(assert (not (= x41 (_ bv2 8))))
(assert (not (= x41 x50)))
(assert (not (= x41 (_ bv3 8))))
(assert (not (= x41 (_ bv5 8))))
(assert (not (= (_ bv2 8) x50)))
(assert (not (= (_ bv2 8) (_ bv3 8))))
(assert (not (= (_ bv2 8) (_ bv5 8))))
(assert (not (= x50 (_ bv3 8))))
(assert (not (= x50 (_ bv5 8))))
(assert (not (= (_ bv3 8) (_ bv5 8))))
(assert (not (= (_ bv3 8) (_ bv5 8))))
(assert (not (= (_ bv3 8) x35)))
(assert (not (= (_ bv3 8) x43)))
(assert (not (= (_ bv3 8) (_ bv7 8))))
(assert (not (= (_ bv3 8) x45)))
(assert (not (= (_ bv3 8) (_ bv9 8))))
(assert (not (= (_ bv3 8) x54)))
(assert (not (= (_ bv3 8) x55)))
(assert (not (= (_ bv5 8) x35)))
(assert (not (= (_ bv5 8) x43)))
(assert (not (= (_ bv5 8) (_ bv7 8))))
(assert (not (= (_ bv5 8) x45)))
(assert (not (= (_ bv5 8) (_ bv9 8))))
(assert (not (= (_ bv5 8) x54)))
(assert (not (= (_ bv5 8) x55)))
(assert (not (= x35 x43)))
(assert (not (= x35 (_ bv7 8))))
(assert (not (= x35 x45)))
(assert (not (= x35 (_ bv9 8))))
(assert (not (= x35 x54)))
(assert (not (= x35 x55)))
(assert (not (= x43 (_ bv7 8))))
(assert (not (= x43 x45)))
(assert (not (= x43 (_ bv9 8))))
(assert (not (= x43 x54)))
(assert (not (= x43 x55)))
(assert (not (= (_ bv7 8) x45)))
(assert (not (= (_ bv7 8) (_ bv9 8))))
(assert (not (= (_ bv7 8) x54)))
(assert (not (= (_ bv7 8) x55)))
(assert (not (= x45 (_ bv9 8))))
(assert (not (= x45 x54)))
(assert (not (= x45 x55)))
(assert (not (= (_ bv9 8) x54)))
(assert (not (= (_ bv9 8) x55)))
(assert (not (= x54 x55)))
(assert (not (= x36 x37)))
(assert (not (= x36 (_ bv6 8))))
(assert (not (= x36 x46)))
(assert (not (= x36 (_ bv9 8))))
(assert (not (= x36 x48)))
(assert (not (= x36 x56)))
(assert (not (= x36 (_ bv2 8))))
(assert (not (= x36 (_ bv7 8))))
(assert (not (= x37 (_ bv6 8))))
(assert (not (= x37 x46)))
(assert (not (= x37 (_ bv9 8))))
(assert (not (= x37 x48)))
(assert (not (= x37 x56)))
(assert (not (= x37 (_ bv2 8))))
(assert (not (= x37 (_ bv7 8))))
(assert (not (= (_ bv6 8) x46)))
(assert (not (= (_ bv6 8) (_ bv9 8))))
(assert (not (= (_ bv6 8) x48)))
(assert (not (= (_ bv6 8) x56)))
(assert (not (= (_ bv6 8) (_ bv2 8))))
(assert (not (= (_ bv6 8) (_ bv7 8))))
(assert (not (= x46 (_ bv9 8))))
(assert (not (= x46 x48)))
(assert (not (= x46 x56)))
(assert (not (= x46 (_ bv2 8))))
(assert (not (= x46 (_ bv7 8))))
(assert (not (= (_ bv9 8) x48)))
(assert (not (= (_ bv9 8) x56)))
(assert (not (= (_ bv9 8) (_ bv2 8))))
(assert (not (= (_ bv9 8) (_ bv7 8))))
(assert (not (= x48 x56)))
(assert (not (= x48 (_ bv2 8))))
(assert (not (= x48 (_ bv7 8))))
(assert (not (= x56 (_ bv2 8))))
(assert (not (= x56 (_ bv7 8))))
(assert (not (= (_ bv2 8) (_ bv7 8))))
(assert (not (= x60 x61)))
(assert (not (= x60 x62)))
(assert (not (= x60 x70)))
(assert (not (= x60 (_ bv6 8))))
(assert (not (= x60 x72)))
(assert (not (= x60 x80)))
(assert (not (= x60 x81)))
(assert (not (= x60 x82)))
(assert (not (= x61 x62)))
(assert (not (= x61 x70)))
(assert (not (= x61 (_ bv6 8))))
(assert (not (= x61 x72)))
(assert (not (= x61 x80)))
(assert (not (= x61 x81)))
(assert (not (= x61 x82)))
(assert (not (= x62 x70)))
(assert (not (= x62 (_ bv6 8))))
(assert (not (= x62 x72)))
(assert (not (= x62 x80)))
(assert (not (= x62 x81)))
(assert (not (= x62 x82)))
(assert (not (= x70 (_ bv6 8))))
(assert (not (= x70 x72)))
(assert (not (= x70 x80)))
(assert (not (= x70 x81)))
(assert (not (= x70 x82)))
(assert (not (= (_ bv6 8) x72)))
(assert (not (= (_ bv6 8) x80)))
(assert (not (= (_ bv6 8) x81)))
(assert (not (= (_ bv6 8) x82)))
(assert (not (= x72 x80)))
(assert (not (= x72 x81)))
(assert (not (= x72 x82)))
(assert (not (= x80 x81)))
(assert (not (= x80 x82)))
(assert (not (= x81 x82)))
(assert (not (= x63 x64)))
(assert (not (= x63 (_ bv8 8))))
(assert (not (= x63 x73)))
(assert (not (= x63 (_ bv1 8))))
(assert (not (= x63 x75)))
(assert (not (= x63 x83)))
(assert (not (= x63 x84)))
(assert (not (= x63 x85)))
(assert (not (= x64 (_ bv8 8))))
(assert (not (= x64 x73)))
(assert (not (= x64 (_ bv1 8))))
(assert (not (= x64 x75)))
(assert (not (= x64 x83)))
(assert (not (= x64 x84)))
(assert (not (= x64 x85)))
(assert (not (= (_ bv8 8) x73)))
(assert (not (= (_ bv8 8) (_ bv1 8))))
(assert (not (= (_ bv8 8) x75)))
(assert (not (= (_ bv8 8) x83)))
(assert (not (= (_ bv8 8) x84)))
(assert (not (= (_ bv8 8) x85)))
(assert (not (= x73 (_ bv1 8))))
(assert (not (= x73 x75)))
(assert (not (= x73 x83)))
(assert (not (= x73 x84)))
(assert (not (= x73 x85)))
(assert (not (= (_ bv1 8) x75)))
(assert (not (= (_ bv1 8) x83)))
(assert (not (= (_ bv1 8) x84)))
(assert (not (= (_ bv1 8) x85)))
(assert (not (= x75 x83)))
(assert (not (= x75 x84)))
(assert (not (= x75 x85)))
(assert (not (= x83 x84)))
(assert (not (= x83 x85)))
(assert (not (= x84 x85)))
(assert (not (= (_ bv3 8) (_ bv4 8))))
(assert (not (= (_ bv3 8) (_ bv5 8))))
(assert (not (= (_ bv3 8) (_ bv9 8))))
(assert (not (= (_ bv3 8) (_ bv7 8))))
(assert (not (= (_ bv3 8) x78)))
(assert (not (= (_ bv3 8) x86)))
(assert (not (= (_ bv3 8) x87)))
(assert (not (= (_ bv3 8) (_ bv8 8))))
(assert (not (= (_ bv4 8) (_ bv5 8))))
(assert (not (= (_ bv4 8) (_ bv9 8))))
(assert (not (= (_ bv4 8) (_ bv7 8))))
(assert (not (= (_ bv4 8) x78)))
(assert (not (= (_ bv4 8) x86)))
(assert (not (= (_ bv4 8) x87)))
(assert (not (= (_ bv4 8) (_ bv8 8))))
(assert (not (= (_ bv5 8) (_ bv9 8))))
(assert (not (= (_ bv5 8) (_ bv7 8))))
(assert (not (= (_ bv5 8) x78)))
(assert (not (= (_ bv5 8) x86)))
(assert (not (= (_ bv5 8) x87)))
(assert (not (= (_ bv5 8) (_ bv8 8))))
(assert (not (= (_ bv9 8) (_ bv7 8))))
(assert (not (= (_ bv9 8) x78)))
(assert (not (= (_ bv9 8) x86)))
(assert (not (= (_ bv9 8) x87)))
(assert (not (= (_ bv9 8) (_ bv8 8))))
(assert (not (= (_ bv7 8) x78)))
(assert (not (= (_ bv7 8) x86)))
(assert (not (= (_ bv7 8) x87)))
(assert (not (= (_ bv7 8) (_ bv8 8))))
(assert (not (= x78 x86)))
(assert (not (= x78 x87)))
(assert (not (= x78 (_ bv8 8))))
(assert (not (= x86 x87)))
(assert (not (= x86 (_ bv8 8))))
(assert (not (= x87 (_ bv8 8))))
(check-sat)
(exit)
